x = 15;
y = 13;
c = 65;
n = 46;

p = [97  35  54  71  43  94  41  53  49  21  93  57  46  43  56  77  38  37  97  48  83  13  65  89  49  58  71  84  52  49  50  94  53  13  53  69  26  43  83  67  39  86  12  22  46  97];
w = [3  2  7  9  1  7  8  4  3  10  10  4  5  1  4  6  7  8  3  3  5  8  5  6  7  2  1  4  4  4  6  1  5  1  5  1  1  1  8  9  5  10  8  9  3  7];
s = [5  4  8  5  7  12  3  1  11  13  11  12  10  13  13  3  7  6  13  4  6  11  2  12  13  3  7  9  3  8  7  1  3  9  13  12  1  3  12  6  6  6  9  8  13  10];
